Alphabet = {A,C,G,T};
ns = 10;
nc = 4;
sl = 4;
neighbours = [| I(A),I(A),I(C),I(A) | I(A),I(C),I(A),I(A) | I(A),I(A),I(A),I(A) | I(A),I(A),I(A),I(A) | I(C),I(C),I(A),I(A) | I(A),I(A),I(C),I(C) | I(A),I(C),I(A),I(C) | I(A),I(A),I(A),I(A) | I(A),I(C),I(A),I(A) | I(A),I(A),I(A),I(C) |];
